certificates/rado_a9_c273_N31.cnf
c Rad2 upper bound instance: x1 + 9*x2 - x3 = 273, interval [1,31]
p cnf 31 166
1 7 31 0
-1 -7 -31 0
2 8 31 0
-2 -8 -31 0
3 9 31 0
-3 -9 -31 0
1 4 30 0
-1 -4 -30 0
4 10 31 0
-4 -10 -31 0
2 5 30 0
-2 -5 -30 0
5 11 31 0
-5 -11 -31 0
3 6 30 0
-3 -6 -30 0
6 12 31 0
-6 -12 -31 0
4 7 30 0
-4 -7 -30 0
7 13 31 0
-7 -13 -31 0
5 8 30 0
-5 -8 -30 0
8 14 31 0
-8 -14 -31 0
6 9 30 0
-6 -9 -30 0
9 15 31 0
-9 -15 -31 0
7 10 30 0
-7 -10 -30 0
10 16 31 0
-10 -16 -31 0
8 11 30 0
-8 -11 -30 0
11 17 31 0
-11 -17 -31 0
9 12 30 0
-9 -12 -30 0
12 18 31 0
-12 -18 -31 0
1 13 29 0
-1 -13 -29 0
10 13 30 0
-10 -13 -30 0
13 19 31 0
-13 -19 -31 0
2 14 29 0
-2 -14 -29 0
11 14 30 0
-11 -14 -30 0
14 20 31 0
-14 -20 -31 0
3 15 29 0
-3 -15 -29 0
12 15 30 0
-12 -15 -30 0
15 21 31 0
-15 -21 -31 0
4 16 29 0
-4 -16 -29 0
13 16 30 0
-13 -16 -30 0
16 22 31 0
-16 -22 -31 0
5 17 29 0
-5 -17 -29 0
14 17 30 0
-14 -17 -30 0
17 23 31 0
-17 -23 -31 0
6 18 29 0
-6 -18 -29 0
15 18 30 0
-15 -18 -30 0
18 24 31 0
-18 -24 -31 0
7 19 29 0
-7 -19 -29 0
16 19 30 0
-16 -19 -30 0
19 25 31 0
-19 -25 -31 0
8 20 29 0
-8 -20 -29 0
17 20 30 0
-17 -20 -30 0
20 26 31 0
-20 -26 -31 0
9 21 29 0
-9 -21 -29 0
18 21 30 0
-18 -21 -30 0
21 27 31 0
-21 -27 -31 0
1 22 28 0
-1 -22 -28 0
10 22 29 0
-10 -22 -29 0
19 22 30 0
-19 -22 -30 0
22 28 31 0
-22 -28 -31 0
2 23 28 0
-2 -23 -28 0
11 23 29 0
-11 -23 -29 0
20 23 30 0
-20 -23 -30 0
23 29 31 0
-23 -29 -31 0
3 24 28 0
-3 -24 -28 0
12 24 29 0
-12 -24 -29 0
21 24 30 0
-21 -24 -30 0
24 30 31 0
-24 -30 -31 0
4 25 28 0
-4 -25 -28 0
13 25 29 0
-13 -25 -29 0
22 25 30 0
-22 -25 -30 0
25 31 0
-25 -31 0
5 26 28 0
-5 -26 -28 0
14 26 29 0
-14 -26 -29 0
23 26 30 0
-23 -26 -30 0
6 27 28 0
-6 -27 -28 0
15 27 29 0
-15 -27 -29 0
24 27 30 0
-24 -27 -30 0
7 28 0
-7 -28 0
16 28 29 0
-16 -28 -29 0
25 28 30 0
-25 -28 -30 0
8 28 29 0
-8 -28 -29 0
17 29 0
-17 -29 0
26 29 30 0
-26 -29 -30 0
9 28 30 0
-9 -28 -30 0
18 29 30 0
-18 -29 -30 0
27 30 0
-27 -30 0
1 27 31 0
-1 -27 -31 0
10 28 31 0
-10 -28 -31 0
19 29 31 0
-19 -29 -31 0
28 30 31 0
-28 -30 -31 0
