certificates/rado_a9_c273_N31.drat
-30 -31 0
-31 0
25 0
30 0
-27 0
-22 0
-28 0
1 0
21 0
6 0
16 0
0
